(declare-fun C1 () Real)
(declare-fun C2 () Real)
(declare-fun C3 () Real)
(declare-fun C4 () Real)
(declare-fun C5 () Real)
(declare-fun C6 () Real)
(declare-fun C7 () Real)
(declare-fun C8 () Real)
(declare-fun C9 () Real)
(declare-fun C10 () Real)
(declare-fun y () Real)
(assert ( and ( or  (<=  (+  (* 8 C1)  (* 2 C2)  (* 1 C3)  (* 1 C4)  (* 1 C5)  (* 1 C6)  (* 1 C7)  (* 1 C8)  (* 1 C9)  (* 1 C10) ) 1656 )  (<=  (+  (* 9 C1)  (* 2 C2)  (* 1 C3)  (* 1 C4)  (* 1 C5)  (* 1 C6)  (* 1 C7)  (* 1 C8)  (* 1 C9)  (* 1 C10) ) 1794 )  (<=  (+  (* 9 C1)  (* 3 C2)  (* 1 C3)  (* 1 C4)  (* 1 C5)  (* 1 C6)  (* 1 C7)  (* 1 C8)  (* 1 C9)  (* 1 C10) ) 1863 )  (<=  (+  (* 10 C1)  (* 3 C2)  (* 1 C3)  (* 1 C4)  (* 1 C5)  (* 1 C6)  (* 1 C7)  (* 1 C8)  (* 1 C9)  (* 1 C10) ) 1991 )  (<=  (+  (* 13 C1)  (* 3 C2)  (* 2 C3)  (* 1 C4)  (* 1 C5)  (* 1 C6)  (* 1 C7)  (* 1 C8)  (* 1 C9)  (* 1 C10) ) 2691 )  (<=  (+  (* 15 C1)  (* 4 C2)  (* 2 C3)  (* 1 C4)  (* 1 C5)  (* 1 C6)  (* 1 C7)  (* 1 C8)  (* 1 C9)  (* 1 C10) ) 3105 )  (<=  (+  (* 16 C1)  (* 4 C2)  (* 2 C3)  (* 1 C4)  (* 1 C5)  (* 1 C6)  (* 1 C7)  (* 1 C8)  (* 1 C9)  (* 1 C10) ) 3295 )  (<=  (+  (* 16 C1)  (* 4 C2)  (* 2 C3)  (* 2 C4)  (* 1 C5)  (* 1 C6)  (* 1 C7)  (* 1 C8)  (* 1 C9)  (* 1 C10) ) 3312 )  (<=  (+  (* 17 C1)  (* 4 C2)  (* 2 C3)  (* 2 C4)  (* 1 C5)  (* 1 C6)  (* 1 C7)  (* 1 C8)  (* 1 C9)  (* 1 C10) ) 3410 )  (<=  (+  (* 17 C1)  (* 4 C2)  (* 2 C3)  (* 2 C4)  (* 2 C5)  (* 1 C6)  (* 1 C7)  (* 1 C8)  (* 1 C9)  (* 1 C10) ) 3519 )  (<=  (+  (* 18 C1)  (* 4 C2)  (* 2 C3)  (* 2 C4)  (* 2 C5)  (* 1 C6)  (* 1 C7)  (* 1 C8)  (* 1 C9)  (* 1 C10) ) 3545 )  (<=  (+  (* 18 C1)  (* 4 C2)  (* 2 C3)  (* 2 C4)  (* 2 C5)  (* 2 C6)  (* 1 C7)  (* 1 C8)  (* 1 C9)  (* 1 C10) ) 3588 )  (<=  (+  (* 18 C1)  (* 5 C2)  (* 2 C3)  (* 2 C4)  (* 2 C5)  (* 2 C6)  (* 1 C7)  (* 1 C8)  (* 1 C9)  (* 1 C10) ) 3726 )  (<=  (+  (* 19 C1)  (* 5 C2)  (* 2 C3)  (* 2 C4)  (* 2 C5)  (* 2 C6)  (* 1 C7)  (* 1 C8)  (* 1 C9)  (* 1 C10) ) 3729 )  (<=  (+  (* 19 C1)  (* 5 C2)  (* 2 C3)  (* 2 C4)  (* 2 C5)  (* 2 C6)  (* 2 C7)  (* 1 C8)  (* 1 C9)  (* 1 C10) ) 3801 )  (<=  (+  (* 19 C1)  (* 5 C2)  (* 2 C3)  (* 2 C4)  (* 2 C5)  (* 2 C6)  (* 2 C7)  (* 2 C8)  (* 1 C9)  (* 1 C10) ) 3933 )  (<=  (+  (* 20 C1)  (* 5 C2)  (* 2 C3)  (* 2 C4)  (* 2 C5)  (* 2 C6)  (* 2 C7)  (* 2 C8)  (* 1 C9)  (* 1 C10) ) 3982 )  (<=  (+  (* 20 C1)  (* 5 C2)  (* 3 C3)  (* 2 C4)  (* 2 C5)  (* 2 C6)  (* 2 C7)  (* 2 C8)  (* 1 C9)  (* 1 C10) ) 4140 )  (<=  (+  (* 21 C1)  (* 5 C2)  (* 3 C3)  (* 2 C4)  (* 2 C5)  (* 2 C6)  (* 2 C7)  (* 2 C8)  (* 1 C9)  (* 1 C10) ) 4254 )  (<=  (+  (* 21 C1)  (* 5 C2)  (* 3 C3)  (* 2 C4)  (* 2 C5)  (* 2 C6)  (* 2 C7)  (* 2 C8)  (* 2 C9)  (* 1 C10) ) 4347 )  (<=  (+  (* 22 C1)  (* 5 C2)  (* 3 C3)  (* 2 C4)  (* 2 C5)  (* 2 C6)  (* 2 C7)  (* 2 C8)  (* 2 C9)  (* 1 C10) ) 4485 )  (<=  (+  (* 22 C1)  (* 6 C2)  (* 3 C3)  (* 2 C4)  (* 2 C5)  (* 2 C6)  (* 2 C7)  (* 2 C8)  (* 2 C9)  (* 1 C10) ) 4554 )  (<=  (+  (* 23 C1)  (* 6 C2)  (* 3 C3)  (* 2 C4)  (* 2 C5)  (* 2 C6)  (* 2 C7)  (* 2 C8)  (* 2 C9)  (* 1 C10) ) 4674 ) ) ( or  (<=  (+  (* 8 C1)  (* 2 C2)  (* 1 C3)  (* 1 C4)  (* 1 C5)  (* 1 C6)  (* 1 C7)  (* 1 C8)  (* 1 C9) ) 1656 )  (<=  (+  (* 9 C1)  (* 2 C2)  (* 1 C3)  (* 1 C4)  (* 1 C5)  (* 1 C6)  (* 1 C7)  (* 1 C8)  (* 1 C9) ) 1794 )  (<=  (+  (* 9 C1)  (* 3 C2)  (* 1 C3)  (* 1 C4)  (* 1 C5)  (* 1 C6)  (* 1 C7)  (* 1 C8)  (* 1 C9) ) 1863 )  (<=  (+  (* 10 C1)  (* 3 C2)  (* 1 C3)  (* 1 C4)  (* 1 C5)  (* 1 C6)  (* 1 C7)  (* 1 C8)  (* 1 C9) ) 1991 )  (<=  (+  (* 13 C1)  (* 3 C2)  (* 2 C3)  (* 1 C4)  (* 1 C5)  (* 1 C6)  (* 1 C7)  (* 1 C8)  (* 1 C9) ) 2691 )  (<=  (+  (* 15 C1)  (* 4 C2)  (* 2 C3)  (* 1 C4)  (* 1 C5)  (* 1 C6)  (* 1 C7)  (* 1 C8)  (* 1 C9) ) 3105 )  (<=  (+  (* 16 C1)  (* 4 C2)  (* 2 C3)  (* 1 C4)  (* 1 C5)  (* 1 C6)  (* 1 C7)  (* 1 C8)  (* 1 C9) ) 3295 )  (<=  (+  (* 16 C1)  (* 4 C2)  (* 2 C3)  (* 2 C4)  (* 1 C5)  (* 1 C6)  (* 1 C7)  (* 1 C8)  (* 1 C9) ) 3312 )  (<=  (+  (* 17 C1)  (* 4 C2)  (* 2 C3)  (* 2 C4)  (* 1 C5)  (* 1 C6)  (* 1 C7)  (* 1 C8)  (* 1 C9) ) 3410 )  (<=  (+  (* 17 C1)  (* 4 C2)  (* 2 C3)  (* 2 C4)  (* 2 C5)  (* 1 C6)  (* 1 C7)  (* 1 C8)  (* 1 C9) ) 3519 )  (<=  (+  (* 18 C1)  (* 4 C2)  (* 2 C3)  (* 2 C4)  (* 2 C5)  (* 1 C6)  (* 1 C7)  (* 1 C8)  (* 1 C9) ) 3545 )  (<=  (+  (* 18 C1)  (* 4 C2)  (* 2 C3)  (* 2 C4)  (* 2 C5)  (* 2 C6)  (* 1 C7)  (* 1 C8)  (* 1 C9) ) 3588 )  (<=  (+  (* 18 C1)  (* 5 C2)  (* 2 C3)  (* 2 C4)  (* 2 C5)  (* 2 C6)  (* 1 C7)  (* 1 C8)  (* 1 C9) ) 3726 )  (<=  (+  (* 19 C1)  (* 5 C2)  (* 2 C3)  (* 2 C4)  (* 2 C5)  (* 2 C6)  (* 1 C7)  (* 1 C8)  (* 1 C9) ) 3729 )  (<=  (+  (* 19 C1)  (* 5 C2)  (* 2 C3)  (* 2 C4)  (* 2 C5)  (* 2 C6)  (* 2 C7)  (* 1 C8)  (* 1 C9) ) 3801 )  (<=  (+  (* 19 C1)  (* 5 C2)  (* 2 C3)  (* 2 C4)  (* 2 C5)  (* 2 C6)  (* 2 C7)  (* 2 C8)  (* 1 C9) ) 3933 )  (<=  (+  (* 20 C1)  (* 5 C2)  (* 2 C3)  (* 2 C4)  (* 2 C5)  (* 2 C6)  (* 2 C7)  (* 2 C8)  (* 1 C9) ) 3982 )  (<=  (+  (* 20 C1)  (* 5 C2)  (* 3 C3)  (* 2 C4)  (* 2 C5)  (* 2 C6)  (* 2 C7)  (* 2 C8)  (* 1 C9) ) 4140 )  (<=  (+  (* 21 C1)  (* 5 C2)  (* 3 C3)  (* 2 C4)  (* 2 C5)  (* 2 C6)  (* 2 C7)  (* 2 C8)  (* 1 C9) ) 4254 ) ) ( or  (<=  (+  (* 8 C1)  (* 2 C2)  (* 1 C3)  (* 1 C4)  (* 1 C5)  (* 1 C6)  (* 1 C7)  (* 1 C8) ) 1656 )  (<=  (+  (* 9 C1)  (* 2 C2)  (* 1 C3)  (* 1 C4)  (* 1 C5)  (* 1 C6)  (* 1 C7)  (* 1 C8) ) 1794 )  (<=  (+  (* 9 C1)  (* 3 C2)  (* 1 C3)  (* 1 C4)  (* 1 C5)  (* 1 C6)  (* 1 C7)  (* 1 C8) ) 1863 )  (<=  (+  (* 10 C1)  (* 3 C2)  (* 1 C3)  (* 1 C4)  (* 1 C5)  (* 1 C6)  (* 1 C7)  (* 1 C8) ) 1991 )  (<=  (+  (* 13 C1)  (* 3 C2)  (* 2 C3)  (* 1 C4)  (* 1 C5)  (* 1 C6)  (* 1 C7)  (* 1 C8) ) 2691 )  (<=  (+  (* 15 C1)  (* 4 C2)  (* 2 C3)  (* 1 C4)  (* 1 C5)  (* 1 C6)  (* 1 C7)  (* 1 C8) ) 3105 )  (<=  (+  (* 16 C1)  (* 4 C2)  (* 2 C3)  (* 1 C4)  (* 1 C5)  (* 1 C6)  (* 1 C7)  (* 1 C8) ) 3295 )  (<=  (+  (* 16 C1)  (* 4 C2)  (* 2 C3)  (* 2 C4)  (* 1 C5)  (* 1 C6)  (* 1 C7)  (* 1 C8) ) 3312 )  (<=  (+  (* 17 C1)  (* 4 C2)  (* 2 C3)  (* 2 C4)  (* 1 C5)  (* 1 C6)  (* 1 C7)  (* 1 C8) ) 3410 )  (<=  (+  (* 17 C1)  (* 4 C2)  (* 2 C3)  (* 2 C4)  (* 2 C5)  (* 1 C6)  (* 1 C7)  (* 1 C8) ) 3519 )  (<=  (+  (* 18 C1)  (* 4 C2)  (* 2 C3)  (* 2 C4)  (* 2 C5)  (* 1 C6)  (* 1 C7)  (* 1 C8) ) 3545 )  (<=  (+  (* 18 C1)  (* 4 C2)  (* 2 C3)  (* 2 C4)  (* 2 C5)  (* 2 C6)  (* 1 C7)  (* 1 C8) ) 3588 )  (<=  (+  (* 18 C1)  (* 5 C2)  (* 2 C3)  (* 2 C4)  (* 2 C5)  (* 2 C6)  (* 1 C7)  (* 1 C8) ) 3726 )  (<=  (+  (* 19 C1)  (* 5 C2)  (* 2 C3)  (* 2 C4)  (* 2 C5)  (* 2 C6)  (* 1 C7)  (* 1 C8) ) 3729 )  (<=  (+  (* 19 C1)  (* 5 C2)  (* 2 C3)  (* 2 C4)  (* 2 C5)  (* 2 C6)  (* 2 C7)  (* 1 C8) ) 3801 ) ) ( or  (<=  (+  (* 8 C1)  (* 2 C2)  (* 1 C3)  (* 1 C4)  (* 1 C5)  (* 1 C6)  (* 1 C7) ) 1656 )  (<=  (+  (* 9 C1)  (* 2 C2)  (* 1 C3)  (* 1 C4)  (* 1 C5)  (* 1 C6)  (* 1 C7) ) 1794 )  (<=  (+  (* 9 C1)  (* 3 C2)  (* 1 C3)  (* 1 C4)  (* 1 C5)  (* 1 C6)  (* 1 C7) ) 1863 )  (<=  (+  (* 10 C1)  (* 3 C2)  (* 1 C3)  (* 1 C4)  (* 1 C5)  (* 1 C6)  (* 1 C7) ) 1991 )  (<=  (+  (* 13 C1)  (* 3 C2)  (* 2 C3)  (* 1 C4)  (* 1 C5)  (* 1 C6)  (* 1 C7) ) 2691 )  (<=  (+  (* 15 C1)  (* 4 C2)  (* 2 C3)  (* 1 C4)  (* 1 C5)  (* 1 C6)  (* 1 C7) ) 3105 )  (<=  (+  (* 16 C1)  (* 4 C2)  (* 2 C3)  (* 1 C4)  (* 1 C5)  (* 1 C6)  (* 1 C7) ) 3295 )  (<=  (+  (* 16 C1)  (* 4 C2)  (* 2 C3)  (* 2 C4)  (* 1 C5)  (* 1 C6)  (* 1 C7) ) 3312 )  (<=  (+  (* 17 C1)  (* 4 C2)  (* 2 C3)  (* 2 C4)  (* 1 C5)  (* 1 C6)  (* 1 C7) ) 3410 )  (<=  (+  (* 17 C1)  (* 4 C2)  (* 2 C3)  (* 2 C4)  (* 2 C5)  (* 1 C6)  (* 1 C7) ) 3519 )  (<=  (+  (* 18 C1)  (* 4 C2)  (* 2 C3)  (* 2 C4)  (* 2 C5)  (* 1 C6)  (* 1 C7) ) 3545 )  (<=  (+  (* 18 C1)  (* 4 C2)  (* 2 C3)  (* 2 C4)  (* 2 C5)  (* 2 C6)  (* 1 C7) ) 3588 )  (<=  (+  (* 18 C1)  (* 5 C2)  (* 2 C3)  (* 2 C4)  (* 2 C5)  (* 2 C6)  (* 1 C7) ) 3726 )  (<=  (+  (* 19 C1)  (* 5 C2)  (* 2 C3)  (* 2 C4)  (* 2 C5)  (* 2 C6)  (* 1 C7) ) 3729 ) ) ( or  (<=  (+  (* 8 C1)  (* 2 C2)  (* 1 C3)  (* 1 C4)  (* 1 C5)  (* 1 C6) ) 1656 )  (<=  (+  (* 9 C1)  (* 2 C2)  (* 1 C3)  (* 1 C4)  (* 1 C5)  (* 1 C6) ) 1794 )  (<=  (+  (* 9 C1)  (* 3 C2)  (* 1 C3)  (* 1 C4)  (* 1 C5)  (* 1 C6) ) 1863 )  (<=  (+  (* 10 C1)  (* 3 C2)  (* 1 C3)  (* 1 C4)  (* 1 C5)  (* 1 C6) ) 1991 )  (<=  (+  (* 13 C1)  (* 3 C2)  (* 2 C3)  (* 1 C4)  (* 1 C5)  (* 1 C6) ) 2691 )  (<=  (+  (* 15 C1)  (* 4 C2)  (* 2 C3)  (* 1 C4)  (* 1 C5)  (* 1 C6) ) 3105 )  (<=  (+  (* 16 C1)  (* 4 C2)  (* 2 C3)  (* 1 C4)  (* 1 C5)  (* 1 C6) ) 3295 )  (<=  (+  (* 16 C1)  (* 4 C2)  (* 2 C3)  (* 2 C4)  (* 1 C5)  (* 1 C6) ) 3312 )  (<=  (+  (* 17 C1)  (* 4 C2)  (* 2 C3)  (* 2 C4)  (* 1 C5)  (* 1 C6) ) 3410 )  (<=  (+  (* 17 C1)  (* 4 C2)  (* 2 C3)  (* 2 C4)  (* 2 C5)  (* 1 C6) ) 3519 )  (<=  (+  (* 18 C1)  (* 4 C2)  (* 2 C3)  (* 2 C4)  (* 2 C5)  (* 1 C6) ) 3545 ) ) ( or  (<=  (+  (* 8 C1)  (* 2 C2)  (* 1 C3)  (* 1 C4)  (* 1 C5) ) 1656 )  (<=  (+  (* 9 C1)  (* 2 C2)  (* 1 C3)  (* 1 C4)  (* 1 C5) ) 1794 )  (<=  (+  (* 9 C1)  (* 3 C2)  (* 1 C3)  (* 1 C4)  (* 1 C5) ) 1863 )  (<=  (+  (* 10 C1)  (* 3 C2)  (* 1 C3)  (* 1 C4)  (* 1 C5) ) 1991 )  (<=  (+  (* 13 C1)  (* 3 C2)  (* 2 C3)  (* 1 C4)  (* 1 C5) ) 2691 )  (<=  (+  (* 15 C1)  (* 4 C2)  (* 2 C3)  (* 1 C4)  (* 1 C5) ) 3105 )  (<=  (+  (* 16 C1)  (* 4 C2)  (* 2 C3)  (* 1 C4)  (* 1 C5) ) 3295 )  (<=  (+  (* 16 C1)  (* 4 C2)  (* 2 C3)  (* 2 C4)  (* 1 C5) ) 3312 )  (<=  (+  (* 17 C1)  (* 4 C2)  (* 2 C3)  (* 2 C4)  (* 1 C5) ) 3410 ) ) ( or  (<=  (+  (* 8 C1)  (* 2 C2)  (* 1 C3)  (* 1 C4) ) 1656 )  (<=  (+  (* 9 C1)  (* 2 C2)  (* 1 C3)  (* 1 C4) ) 1794 )  (<=  (+  (* 9 C1)  (* 3 C2)  (* 1 C3)  (* 1 C4) ) 1863 )  (<=  (+  (* 10 C1)  (* 3 C2)  (* 1 C3)  (* 1 C4) ) 1991 )  (<=  (+  (* 13 C1)  (* 3 C2)  (* 2 C3)  (* 1 C4) ) 2691 )  (<=  (+  (* 15 C1)  (* 4 C2)  (* 2 C3)  (* 1 C4) ) 3105 )  (<=  (+  (* 16 C1)  (* 4 C2)  (* 2 C3)  (* 1 C4) ) 3295 ) ) ( or  (<=  (+  (* 8 C1)  (* 2 C2)  (* 1 C3) ) 1656 )  (<=  (+  (* 9 C1)  (* 2 C2)  (* 1 C3) ) 1794 )  (<=  (+  (* 9 C1)  (* 3 C2)  (* 1 C3) ) 1863 )  (<=  (+  (* 10 C1)  (* 3 C2)  (* 1 C3) ) 1991 ) ) ( or  (<=  (+  (* 4 C1)  (* 1 C2) ) 828 )  (<=  (+  (* 5 C1)  (* 1 C2) ) 897 ) ) ( or  (<=  (* 1 C1)  207 ) )  (and (>= C1 2) (>= C2 8) (>= C3 19) (>= C4 32) (>= C5 34) (>= C6 35) (>= C7 37) (>= C8 38) (>= C9 42) (>= C10 46) )  (and (<= C1 94) (<= C2 408) (<= C3 906) (<= C4 1500) (<= C5 1552) (<= C6 1614) (<= C7 1698) (<= C8 1730) (<= C9 1937) (<= C10 2128) ) (= y (+ (/ C1 207) (/ C2 897) (/ C3 1991) (/ C4 3295) (/ C5 3410) (/ C6 3545) (/ C7 3729) (/ C8 3801) (/ C9 4254) (/ C10 4674) )) ))
(maximize y)
(check-sat)
